83
6
0 9 10 11 12 13 14 15 16 17 18 20 21 23 24 25 28 29 30 34 35 37 38 43 44 47 51 53 54 57 58 63 65 66 68 69 70 71 73 74 76 77 81 82
1 8 9 10 11 12 13 14 15 17 18 19 22 23 24 27 28 30 31 33 37 38 39 42 44 47 48 49 50 51 52 53 57 59 60 61 62 64 65 66 67 69 70 71 72 73 74 78 79
2 8 9 10 11 12 14 16 17 20 25 26 28 30 32 33 35 41 42 43 45 47 48 50 51 53 55 57 58 59 60 61 62 64 66 67 68 69 73 76 77 78 79 81 82
3 6 8 16 18 20 26 27 30 31 35 36 37 40 41 42 43 46 47 48 51 54 58 59 60 62 65 69 70 72 73 75 77 80 82
4 7 21 23 34 40 47 53 54 56 57 59 63 66 67 77 80
5 14 19 20 24 27 30 33 45 71 75 76
